14° run output:
{
    "Function": "euclidA300.tsp",
    "Problem dimension": [
        280,
        211,
        297,
        204,
        142,
        231,
        41,
        37,
        203,
        198,
        287,
        66,
        71,
        223,
        56,
        58,
        273,
        72,
        81,
        168,
        103,
        262,
        274,
        246,
        214,
        144,
        177,
        196,
        24,
        26,
        65,
        111,
        44,
        129,
        60,
        195,
        87,
        45,
        14,
        217,
        122,
        283,
        161,
        13,
        125,
        11,
        116,
        222,
        194,
        266,
        79,
        235,
        230,
        63,
        255,
        260,
        290,
        124,
        209,
        150,
        89,
        108,
        6,
        205,
        206,
        221,
        1,
        242,
        42,
        166,
        167,
        185,
        105,
        268,
        40,
        234,
        151,
        64,
        75,
        294,
        175,
        238,
        152,
        183,
        98,
        22,
        15,
        154,
        35,
        176,
        289,
        181,
        25,
        131,
        265,
        147,
        10,
        186,
        0,
        112,
        16,
        275,
        201,
        248,
        126,
        155,
        163,
        114,
        123,
        267,
        134,
        83,
        240,
        139,
        88,
        164,
        47,
        59,
        285,
        73,
        28,
        224,
        2,
        61,
        68,
        90,
        7,
        197,
        85,
        93,
        190,
        118,
        272,
        286,
        77,
        27,
        94,
        282,
        252,
        247,
        91,
        298,
        8,
        219,
        243,
        148,
        51,
        295,
        80,
        110,
        18,
        30,
        216,
        101,
        250,
        136,
        138,
        121,
        29,
        192,
        174,
        34,
        207,
        120,
        32,
        135,
        202,
        48,
        239,
        170,
        215,
        241,
        279,
        9,
        4,
        172,
        293,
        102,
        141,
        160,
        157,
        146,
        17,
        259,
        200,
        169,
        278,
        284,
        86,
        182,
        159,
        140,
        132,
        256,
        173,
        78,
        178,
        165,
        31,
        69,
        227,
        188,
        128,
        158,
        127,
        210,
        277,
        76,
        296,
        251,
        115,
        245,
        281,
        270,
        291,
        292,
        119,
        100,
        244,
        52,
        225,
        92,
        143,
        3,
        137,
        46,
        187,
        39,
        36,
        228,
        213,
        38,
        130,
        82,
        184,
        249,
        107,
        253,
        153,
        237,
        97,
        193,
        19,
        236,
        271,
        109,
        156,
        218,
        21,
        12,
        191,
        162,
        288,
        233,
        257,
        23,
        55,
        49,
        254,
        208,
        20,
        199,
        226,
        53,
        5,
        57,
        264,
        70,
        179,
        180,
        96,
        99,
        43,
        299,
        95,
        189,
        106,
        232,
        113,
        67,
        149,
        171,
        269,
        62,
        145,
        54,
        74,
        229,
        50,
        261,
        220,
        117,
        276,
        84,
        258,
        104,
        263,
        212,
        133,
        33
    ],
    "Global Optimum": 0,
    "Algorithm": "Genetic algorithm",
    "Parameters": {
        "population": 30,
        "offspring": 30,
        "mutation probability": 0.0033333333333333335,
        "crossover probability": 0.9
    },
    "Fitness": 370769,
    "Solution": [
        280,
        211,
        297,
        204,
        142,
        231,
        41,
        37,
        203,
        198,
        287,
        66,
        71,
        223,
        56,
        58,
        273,
        72,
        81,
        168,
        103,
        262,
        274,
        246,
        214,
        144,
        177,
        196,
        24,
        26,
        65,
        111,
        44,
        129,
        60,
        195,
        87,
        45,
        14,
        217,
        122,
        283,
        161,
        13,
        125,
        11,
        116,
        222,
        194,
        266,
        79,
        235,
        230,
        63,
        255,
        260,
        290,
        124,
        209,
        150,
        89,
        108,
        6,
        205,
        206,
        221,
        1,
        242,
        42,
        166,
        167,
        185,
        105,
        268,
        40,
        234,
        151,
        64,
        75,
        294,
        175,
        238,
        152,
        183,
        98,
        22,
        15,
        154,
        35,
        176,
        289,
        181,
        25,
        131,
        265,
        147,
        10,
        186,
        0,
        112,
        16,
        275,
        201,
        248,
        126,
        155,
        163,
        114,
        123,
        267,
        134,
        83,
        240,
        139,
        88,
        164,
        47,
        59,
        285,
        73,
        28,
        224,
        2,
        61,
        68,
        90,
        7,
        197,
        85,
        93,
        190,
        118,
        272,
        286,
        77,
        27,
        94,
        282,
        252,
        247,
        91,
        298,
        8,
        219,
        243,
        148,
        51,
        295,
        80,
        110,
        18,
        30,
        216,
        101,
        250,
        136,
        138,
        121,
        29,
        192,
        174,
        34,
        207,
        120,
        32,
        135,
        202,
        48,
        239,
        170,
        215,
        241,
        279,
        9,
        4,
        172,
        293,
        102,
        141,
        160,
        157,
        146,
        17,
        259,
        200,
        169,
        278,
        284,
        86,
        182,
        159,
        140,
        132,
        256,
        173,
        78,
        178,
        165,
        31,
        69,
        227,
        188,
        128,
        158,
        127,
        210,
        277,
        76,
        296,
        251,
        115,
        245,
        281,
        270,
        291,
        292,
        119,
        100,
        244,
        52,
        225,
        92,
        143,
        3,
        137,
        46,
        187,
        39,
        36,
        228,
        213,
        38,
        130,
        82,
        184,
        249,
        107,
        253,
        153,
        237,
        97,
        193,
        19,
        236,
        271,
        109,
        156,
        218,
        21,
        12,
        191,
        162,
        288,
        233,
        257,
        23,
        55,
        49,
        254,
        208,
        20,
        199,
        226,
        53,
        5,
        57,
        264,
        70,
        179,
        180,
        96,
        99,
        43,
        299,
        95,
        189,
        106,
        232,
        113,
        67,
        149,
        171,
        269,
        62,
        145,
        54,
        74,
        229,
        50,
        261,
        220,
        117,
        276,
        84,
        258,
        104,
        263,
        212,
        133,
        33
    ],
    "Nb of functions evaluations": 50010,
    "Computational time in seconds": 141.24115443229675,
    "Stopping criterion in evaluations": 50000
}